#p um06l/Def2TZVP int=grid=ultrafine scf=(xqc,intrep,maxconventionalcycle=500) pop=CM5 nosymm guess=(fragment=14)

FeFeFe-B-0xH2O

0 5 -1 1 0 1 -2 1 4 5 3 6 3 -6 -2 1 0 1 0 1 -1 1 -1 1 -1 1 -1 1 -1 1
 O(Fragment=10)     1.65410400   -2.10806000   -1.58707500
 O(Fragment=10)    -0.52616900   -2.51354400   -1.17409600
 C(Fragment=10)     0.53715000   -2.67106300   -1.78676400
 H(Fragment=10)     0.52749900   -3.40172100   -2.61571100
 O(Fragment=11)     1.86679700    2.23607000    1.18018400
 O(Fragment=11)     2.94615100    0.27294500    1.38212100
 C(Fragment=11)     2.73862800    1.47555000    1.65929100
 H(Fragment=11)     3.41098000    1.91849500    2.41497200
 O(Fragment=1)     -2.10604900   -0.13030500   -1.49069000
 O(Fragment=12)     2.80952700    0.48653900   -1.43821300
 O(Fragment=12)     1.38245100    2.21397800   -1.62419400
 C(Fragment=12)     2.38488500    1.54188900   -1.95810500
 H(Fragment=12)     2.96582300    1.93157000   -2.81341000
 O(Fragment=13)    -0.58444100   -2.09859000    1.77605000
 O(Fragment=13)     1.60991200   -2.28185900    1.28118700
 C(Fragment=13)     0.57630700   -2.48945700    1.97670200
 H(Fragment=13)     0.73387100   -3.10647400    2.87845100
 Fe(Fragment=4)    -1.39619200   -1.14106700    0.15047300
 O(Fragment=14)    -2.20391200    0.27496200    1.46660200
 Fe(Fragment=5)     0.14847000    1.85944700    0.02917900
 O(Fragment=14)    -0.90417900    2.10379100    1.70079100
 O(Fragment=1)     -1.42552700    1.99652400   -1.16606000
 Fe(Fragment=6)     1.98181900   -0.84396900   -0.02861800
 O(Fragment=3)      0.28742300   -0.02340800    0.04007300
 C(Fragment=14)    -1.84534400    1.32405400    2.02295400
 H(Fragment=14)    -2.42017600    1.63315400    2.91399600
 C(Fragment=1)     -2.06645700    1.08165300   -1.75575800
 H(Fragment=1)     -2.67276000    1.41266300   -2.61646100
 N(Fragment=2)     -4.96503900    0.63772600   -0.12977400
 N(Fragment=2)     -5.51582000   -0.07234100    0.49591100
 O(Fragment=7)     -2.74440900   -2.03159700    0.23813500
 O(Fragment=8)      0.24021200    4.06777100   -0.00618100
 H(Fragment=8)      0.71057000    4.24342000   -0.83188800
 H(Fragment=8)      0.87961900    4.24902300    0.69578100
 O(Fragment=9)      3.99632500   -1.71963700   -0.36390600
 H(Fragment=9)      4.47007700   -0.98661400   -0.77810700
 H(Fragment=9)      3.77574400   -2.31215900   -1.09703000


