#p gen um06l int=grid=ultrafine scf=(xqc,intrep,maxconventionalcycle=150) pop=(hirshfeld) nosymm counterpoise=2

FeFeFe-A-1xH2O

0 15 0 15 0 1
  O(fragment=1)             1.527010            -2.174420            -1.528538
  O(fragment=1)            -0.716556            -2.276490            -1.333280
  C(fragment=1)             0.388585            -2.608730            -1.822767
  H(fragment=1)             0.354601            -3.375407            -2.615179
  O(fragment=1)             1.936820             2.209194             1.439928
  O(fragment=1)             3.104092             0.295101             1.197619
  C(fragment=1)             2.888801             1.431265             1.682187
  H(fragment=1)             3.629974             1.788879             2.417150
  O(fragment=1)            -2.219574             0.126871            -1.204665
  O(fragment=1)             2.827228             0.342818            -1.630797
  O(fragment=1)             1.734384             2.302238            -1.404736
  C(fragment=1)             2.565778             1.528141            -1.937278
  H(fragment=1)             3.139699             1.940496            -2.786017
  O(fragment=1)            -0.475477            -2.304180             1.478768
  O(fragment=1)             1.768498            -2.209668             1.284965
  C(fragment=1)             0.695786            -2.650457             1.760679
  H(fragment=1)             0.795169            -3.437652             2.527157
 Fe(fragment=1)            -1.106564            -0.921728             0.128650
  O(fragment=1)            -2.024296             0.072394             1.629383
 Fe(fragment=1)             0.355749             2.069796             0.180428
  O(fragment=1)            -1.006923             2.083988             1.678007
  O(fragment=1)            -1.268000             2.170842            -1.160997
 Fe(fragment=1)             2.039676            -0.784742            -0.139459
  O(fragment=1)             0.426307             0.157100             0.020219
  C(fragment=1)            -1.833355             1.229153             2.073779
  H(fragment=1)            -2.471209             1.530016             2.922246
  C(fragment=1)            -2.108963             1.324943            -1.550493
  H(fragment=1)            -2.844665             1.678176            -2.294592
  O(fragment=2)             0.242402             4.200359            -0.214244
  H(fragment=2)             0.951239             4.265593            -0.871917
  H(fragment=2)            -0.574426             4.218000            -0.734789

@/zfs/curium/svicchi/00-MOF/01-Gaussian/zw-basis-set/def2-TZVP/H.gbs
****
@/zfs/curium/svicchi/00-MOF/01-Gaussian/zw-basis-set/def2-TZVP/O.gbs
****
@/zfs/curium/svicchi/00-MOF/01-Gaussian/zw-basis-set/def2-TZVP/C.gbs
****
@/zfs/curium/svicchi/00-MOF/01-Gaussian/zw-basis-set/def2-TZVP/Fe.gbs
****






  


