# SP Geom=AllCheckpoint um06l/Def2TZVP int=grid=ultrafine scf=(xqc,intrep,maxconventionalcycle=1000) pop=(CM5) nosymm guess=read

FeFeFe-B-0xH2O

0 5 -6 1 0 1 -2 1 4 5 3 6 3 -6 -2 1
 O(Fragment=1)      1.71351100   -2.14378100   -1.63833300
 O(Fragment=1)     -0.47515500   -2.50927700   -1.20490000
 C(Fragment=1)      0.58459000   -2.70609000   -1.81109600
 H(Fragment=1)      0.57528600   -3.46605200   -2.61092500
 O(Fragment=1)      1.95217300    2.03744500    1.15712800
 O(Fragment=1)      3.12212600    0.11460300    1.12759300
 C(Fragment=1)      2.90029600    1.29670600    1.49466200
 H(Fragment=1)      3.63102400    1.72374200    2.20052300
 O(Fragment=1)     -2.11766600   -0.09645700   -1.45385300
 O(Fragment=1)      2.67965500    0.51214800   -1.57082100
 O(Fragment=1)      1.39919000    2.36316700   -1.53132100
 C(Fragment=1)      2.33544400    1.64594200   -1.96775700
 H(Fragment=1)      2.91602300    2.07231500   -2.80182600
 O(Fragment=1)     -0.54018900   -2.09682600    1.71394900
 O(Fragment=1)      1.64731900   -2.24905800    1.17054400
 C(Fragment=1)      0.63318900   -2.47246400    1.88643500
 H(Fragment=1)      0.81505700   -3.08876500    2.78320300
 Fe(Fragment=4)    -1.39286400   -1.13389500    0.13795400
 O(Fragment=1)     -2.09706400    0.37518900    1.47218700
 Fe(Fragment=5)     0.25066500    1.81318100    0.02199500
 O(Fragment=1)     -0.83352300    2.24584300    1.59318900
 O(Fragment=1)     -1.34079000    2.00305000   -1.15497900
 Fe(Fragment=6)     1.95524600   -0.84034600   -0.19996700
 O(Fragment=3)      0.28108800   -0.04802300   -0.01328800
 C(Fragment=1)     -1.77591100    1.46972500    1.95119500
 H(Fragment=1)     -2.37146600    1.84226200    2.80219200
 C(Fragment=1)     -2.03378400    1.11562700   -1.72328500
 H(Fragment=1)     -2.64956800    1.46573700   -2.56854000
 N(Fragment=2)     -5.49393100    0.05196500    0.53593900
 N(Fragment=2)     -4.89254000    0.76802300   -0.03378200
 O(Fragment=7)     -2.75017200   -2.00347300    0.26065500









