#p um06l/Def2TZVP int=grid=ultrafine scf=(xqc,intrep,maxconventionalcycle=500) pop=CM5 nosymm guess=(fragment=8)

FeFeFe-B-0xH2O

0 5 -6 1 0 1 -2 1 4 5 3 6 3 -6 -2 1 0 1
 O(Fragment=1)      1.71929900   -2.12141600   -1.58716000
 O(Fragment=1)     -0.47698200   -2.49573900   -1.21444400
 C(Fragment=1)      0.60347000   -2.69167400   -1.78717500
 H(Fragment=1)      0.61807900   -3.46115800   -2.57824600
 O(Fragment=1)      1.89072200    2.14776800    1.15994400
 O(Fragment=1)      3.03879100    0.21096800    1.17221600
 C(Fragment=1)      2.82174800    1.39586700    1.52351400
 H(Fragment=1)      3.54528900    1.81969900    2.24075800
 O(Fragment=1)     -2.14733400   -0.10682700   -1.49686600
 O(Fragment=1)      2.70028200    0.47569700   -1.56681900
 O(Fragment=1)      1.36144500    2.28233900   -1.61933300
 C(Fragment=1)      2.31654400    1.57300400   -2.02196700
 H(Fragment=1)      2.88523800    1.96942700   -2.88071700
 O(Fragment=1)     -0.56125800   -2.09298800    1.70767900
 O(Fragment=1)      1.64164100   -2.19113700    1.21953400
 C(Fragment=1)      0.61451600   -2.44474500    1.90650100
 H(Fragment=1)      0.78887700   -3.06607200    2.80184200
 Fe(Fragment=4)    -1.41330900   -1.13925100    0.10927100
 O(Fragment=1)     -2.20011300    0.27121600    1.46108000
 Fe(Fragment=5)     0.12895000    1.91411400    0.01387800
 O(Fragment=1)     -0.90409900    2.10484900    1.69795700
 O(Fragment=1)     -1.46399100    2.01727600   -1.14981900
 Fe(Fragment=6)     1.89061300   -0.77571200   -0.15911600
 O(Fragment=3)      0.22785600    0.01706700   -0.01878000
 C(Fragment=1)     -1.83918600    1.31443700    2.02337400
 H(Fragment=1)     -2.40116400    1.61298400    2.92598900
 C(Fragment=1)     -2.10762200    1.10860800   -1.74730800
 H(Fragment=1)     -2.71775200    1.44968300   -2.60089700
 N(Fragment=2)     -5.54511400   -0.10034000    0.50858800
 N(Fragment=2)     -4.98258600    0.62729700   -0.08580700
 O(Fragment=7)     -2.74635700   -2.05046500    0.20037100
 O(Fragment=8)      0.26009500    4.09505100    0.06622100
 H(Fragment=8)      0.86301900    4.30201300   -0.66014000
 H(Fragment=8)      0.74889200    4.29280900    0.87545400



